       N       E                     dE             d eps       ncg     rms          rms(c)
DAV:   1     0.856936854115E+03    0.85694E+03   -0.47671E+04  7616   0.865E+02
DAV:   2     0.176259770905E+02   -0.83931E+03   -0.78333E+03  7536   0.254E+02
DAV:   3    -0.869756994702E+02   -0.10460E+03   -0.10299E+03  8424   0.943E+01
DAV:   4    -0.892522817255E+02   -0.22766E+01   -0.22726E+01  7912   0.166E+01
DAV:   5    -0.892951331134E+02   -0.42851E-01   -0.42849E-01  8408   0.225E+00    0.439E+01
DAV:   6    -0.603167494277E+02    0.28978E+02   -0.80350E+01  9328   0.670E+01    0.459E+01
DAV:   7    -0.627364170703E+02   -0.24197E+01   -0.27921E+01  7656   0.269E+01    0.260E+01
DAV:   8    -0.621200766682E+02    0.61634E+00   -0.50306E+00  7824   0.134E+01    0.194E+01
DAV:   9    -0.619794849432E+02    0.14059E+00   -0.10132E+00  8072   0.552E+00    0.134E+01
DAV:  10    -0.617829276341E+02    0.19656E+00   -0.11886E+00  7728   0.620E+00    0.559E+00
DAV:  11    -0.618470059227E+02   -0.64078E-01   -0.17062E-01  7680   0.274E+00    0.271E+00
DAV:  12    -0.618915883408E+02   -0.44582E-01   -0.17593E-01  7584   0.278E+00    0.291E+00
DAV:  13    -0.618615323237E+02    0.30056E-01   -0.69464E-02  7600   0.183E+00    0.886E-01
DAV:  14    -0.618614059548E+02    0.12637E-03   -0.46818E-03  7656   0.270E-01    0.250E-01
DAV:  15    -0.618676737459E+02   -0.62678E-02   -0.20542E-03  7952   0.225E-01    0.195E-01
DAV:  16    -0.618764657885E+02   -0.87920E-02   -0.20786E-03  7744   0.227E-01    0.119E-01
DAV:  17    -0.618849722521E+02   -0.85065E-02   -0.56554E-04  7920   0.841E-02    0.674E-02
DAV:  18    -0.618938192540E+02   -0.88470E-02   -0.47253E-04  7696   0.722E-02    0.624E-02
DAV:  19    -0.618970036277E+02   -0.31844E-02   -0.21445E-04  7760   0.466E-02    0.289E-02
DAV:  20    -0.618985670838E+02   -0.15635E-02   -0.27511E-05  7520   0.272E-02    0.284E-02
DAV:  21    -0.618993606186E+02   -0.79353E-03   -0.25917E-05  7304   0.159E-02    0.177E-02
DAV:  22    -0.618995760903E+02   -0.21547E-03   -0.12155E-05  7344   0.119E-02    0.987E-03
DAV:  23    -0.618998984267E+02   -0.32234E-03   -0.90881E-06  6752   0.876E-03    0.531E-03
DAV:  24    -0.619001065192E+02   -0.20809E-03   -0.55500E-06  6664   0.582E-03    0.839E-03
DAV:  25    -0.619001903107E+02   -0.83792E-04   -0.34341E-06  6736   0.642E-03    0.233E-03
DAV:  26    -0.619002555791E+02   -0.65268E-04   -0.18536E-06  6480   0.281E-03    0.229E-03
DAV:  27    -0.619002881789E+02   -0.32600E-04   -0.32400E-07  6224   0.147E-03    0.934E-04
DAV:  28    -0.619003032810E+02   -0.15102E-04   -0.45184E-08  6112   0.586E-04    0.699E-04
DAV:  29    -0.619003182209E+02   -0.14940E-04   -0.49602E-08  5744   0.575E-04    0.488E-04
DAV:  30    -0.619003274575E+02   -0.92366E-05   -0.14952E-08  6224   0.322E-04    0.238E-04
DAV:  31    -0.619003387406E+02   -0.11283E-04   -0.22581E-08  6096   0.266E-04    0.256E-04
DAV:  32    -0.619003453982E+02   -0.66576E-05   -0.98384E-09  6248   0.200E-04    0.172E-04
DAV:  33    -0.619003478979E+02   -0.24997E-05   -0.25425E-09  6128   0.123E-04    0.780E-05
DAV:  34    -0.619003482442E+02   -0.34630E-06   -0.60526E-10  5928   0.584E-05
   1 F= -.61900348E+02 E0= -.61900534E+02  d E =0.555999E-03  mag=    -0.0000
