       N       E                     dE             d eps       ncg     rms          rms(c)
DAV:   1     0.126188535025E+04    0.12619E+04   -0.44832E+04 41016   0.142E+03
DAV:   2     0.841242630247E+02   -0.11778E+04   -0.10397E+04 40488   0.415E+02
DAV:   3    -0.839019496231E+02   -0.16803E+03   -0.15928E+03 43672   0.169E+02
DAV:   4    -0.894231341724E+02   -0.55212E+01   -0.54855E+01 44548   0.303E+01
DAV:   5    -0.894581080772E+02   -0.34974E-01   -0.34968E-01 44304   0.254E+00    0.468E+01
DAV:   6    -0.646857007656E+02    0.24772E+02   -0.33815E+01 49040   0.663E+01    0.477E+01
DAV:   7    -0.676954155734E+02   -0.30097E+01   -0.12202E+01 41908   0.209E+01    0.265E+01
DAV:   8    -0.678223682157E+02   -0.12695E+00   -0.16466E+00 44224   0.564E+00    0.197E+01
DAV:   9    -0.676255353736E+02    0.19683E+00   -0.50002E-01 42784   0.747E+00    0.510E+00
DAV:  10    -0.677345265597E+02   -0.10899E+00   -0.13570E-01 42096   0.339E+00    0.204E+00
DAV:  11    -0.677283777672E+02    0.61488E-02   -0.18431E-02 43996   0.140E+00    0.667E-01
DAV:  12    -0.677263665435E+02    0.20112E-02   -0.10466E-02 44884   0.874E-01    0.295E-01
DAV:  13    -0.677267232411E+02   -0.35670E-03   -0.21198E-03 42556   0.263E-01    0.165E-01
DAV:  14    -0.677268644640E+02   -0.14122E-03   -0.33795E-04 44184   0.105E-01    0.947E-02
DAV:  15    -0.677268991895E+02   -0.34726E-04   -0.94006E-05 43464   0.825E-02    0.588E-02
DAV:  16    -0.677268991060E+02    0.83495E-07   -0.28923E-05 41912   0.291E-02    0.635E-03
DAV:  17    -0.677268988814E+02    0.22456E-06   -0.14051E-06 37992   0.530E-03
   1 F= -.67726899E+02 E0= -.67726899E+02  d E =0.000000E+00  mag=     0.0000
