       N       E                     dE             d eps       ncg     rms          rms(c)
DAV:   1     0.874090594008E+03    0.87409E+03   -0.47775E+04  5936   0.866E+02
DAV:   2     0.176877517174E+02   -0.85640E+03   -0.80342E+03  5960   0.257E+02
DAV:   3    -0.865140578833E+02   -0.10420E+03   -0.10262E+03  6488   0.947E+01
DAV:   4    -0.887667752768E+02   -0.22527E+01   -0.22490E+01  6200   0.166E+01
DAV:   5    -0.888099428293E+02   -0.43168E-01   -0.43166E-01  6536   0.225E+00    0.488E+01
DAV:   6    -0.619510025608E+02    0.26859E+02   -0.78510E+01  7080   0.672E+01    0.469E+01
DAV:   7    -0.649927297513E+02   -0.30417E+01   -0.21146E+01  5848   0.234E+01    0.265E+01
DAV:   8    -0.647482258259E+02    0.24450E+00   -0.34376E+00  6096   0.821E+00    0.198E+01
DAV:   9    -0.644638408692E+02    0.28438E+00   -0.72112E-01  6104   0.608E+00    0.112E+01
DAV:  10    -0.645648390267E+02   -0.10100E+00   -0.30549E-01  5968   0.296E+00    0.336E+00
DAV:  11    -0.645704815500E+02   -0.56425E-02   -0.62808E-02  5832   0.195E+00    0.212E+00
DAV:  12    -0.645718821818E+02   -0.14006E-02   -0.20542E-02  5960   0.765E-01    0.869E-01
DAV:  13    -0.645747327225E+02   -0.28505E-02   -0.11118E-02  5976   0.626E-01    0.259E-01
DAV:  14    -0.645767650873E+02   -0.20324E-02   -0.27149E-03  6128   0.344E-01    0.453E-01
DAV:  15    -0.645788945576E+02   -0.21295E-02   -0.16408E-03  6128   0.269E-01    0.172E-01
DAV:  16    -0.645803941181E+02   -0.14996E-02   -0.62285E-04  6056   0.188E-01    0.623E-02
DAV:  17    -0.645821420335E+02   -0.17479E-02   -0.20922E-04  6136   0.766E-02    0.483E-02
DAV:  18    -0.645871011049E+02   -0.49591E-02   -0.54291E-04  6056   0.824E-02    0.407E-02
DAV:  19    -0.645876873548E+02   -0.58625E-03   -0.51923E-05  6080   0.388E-02    0.418E-02
DAV:  20    -0.645881457182E+02   -0.45836E-03   -0.11461E-05  5760   0.158E-02    0.132E-02
DAV:  21    -0.645886016487E+02   -0.45593E-03   -0.21173E-05  5536   0.125E-02    0.122E-02
DAV:  22    -0.645888737289E+02   -0.27208E-03   -0.67716E-06  5632   0.121E-02    0.622E-03
DAV:  23    -0.645891050065E+02   -0.23128E-03   -0.49341E-06  5112   0.575E-03    0.585E-03
DAV:  24    -0.645892262864E+02   -0.12128E-03   -0.22655E-06  5136   0.319E-03    0.421E-03
DAV:  25    -0.645892669920E+02   -0.40706E-04   -0.56214E-07  4992   0.180E-03    0.185E-03
DAV:  26    -0.645892825004E+02   -0.15508E-04   -0.14050E-07  4832   0.126E-03    0.125E-03
DAV:  27    -0.645892921333E+02   -0.96329E-05   -0.89287E-08  4800   0.853E-04    0.641E-04
DAV:  28    -0.645892996965E+02   -0.75632E-05   -0.52013E-08  4608   0.485E-04    0.582E-04
DAV:  29    -0.645893024414E+02   -0.27449E-05   -0.51309E-09  4512   0.189E-04    0.275E-04
DAV:  30    -0.645893058006E+02   -0.33592E-05   -0.56350E-09  4536   0.188E-04    0.153E-04
DAV:  31    -0.645893074439E+02   -0.16434E-05   -0.14921E-09  4624   0.980E-05    0.138E-04
DAV:  32    -0.645893087998E+02   -0.13558E-05   -0.44584E-10  4584   0.634E-05    0.928E-05
DAV:  33    -0.645893093213E+02   -0.52151E-06   -0.19847E-10  4600   0.674E-05
   1 F= -.64589309E+02 E0= -.64589309E+02  d E =0.000000E+00  mag=     0.0000
