       N       E                     dE             d eps       ncg     rms          rms(c)
DAV:   1     0.874910946342E+03    0.87491E+03   -0.47816E+04  7640   0.865E+02
DAV:   2     0.178063849844E+02   -0.85710E+03   -0.80322E+03  7616   0.257E+02
DAV:   3    -0.861785715052E+02   -0.10398E+03   -0.10243E+03  8352   0.948E+01
DAV:   4    -0.884250699812E+02   -0.22465E+01   -0.22427E+01  8024   0.166E+01
DAV:   5    -0.884683584199E+02   -0.43288E-01   -0.43287E-01  8360   0.226E+00    0.507E+01
DAV:   6    -0.617480237123E+02    0.26720E+02   -0.77354E+01  9256   0.673E+01    0.474E+01
DAV:   7    -0.648814839167E+02   -0.31335E+01   -0.21163E+01  7560   0.236E+01    0.269E+01
DAV:   8    -0.646757361027E+02    0.20575E+00   -0.34581E+00  7856   0.809E+00    0.192E+01
DAV:   9    -0.643518994425E+02    0.32384E+00   -0.79096E-01  7624   0.700E+00    0.108E+01
DAV:  10    -0.644593458846E+02   -0.10745E+00   -0.26656E-01  7752   0.266E+00    0.295E+00
DAV:  11    -0.644762214459E+02   -0.16876E-01   -0.45419E-02  7544   0.168E+00    0.186E+00
DAV:  12    -0.644807689608E+02   -0.45475E-02   -0.16614E-02  7776   0.707E-01    0.892E-01
DAV:  13    -0.644848264753E+02   -0.40575E-02   -0.97553E-03  7664   0.534E-01    0.299E-01
DAV:  14    -0.644865441233E+02   -0.17176E-02   -0.27912E-03  7856   0.417E-01    0.494E-01
DAV:  15    -0.644882941198E+02   -0.17500E-02   -0.19034E-03  7832   0.263E-01    0.182E-01
DAV:  16    -0.644894794534E+02   -0.11853E-02   -0.45193E-04  7864   0.138E-01    0.895E-02
DAV:  17    -0.644912179786E+02   -0.17385E-02   -0.23486E-04  7832   0.926E-02    0.579E-02
DAV:  18    -0.644967601346E+02   -0.55422E-02   -0.61518E-04  7800   0.915E-02    0.361E-02
DAV:  19    -0.644974606048E+02   -0.70047E-03   -0.61677E-05  7840   0.337E-02    0.366E-02
DAV:  20    -0.644979480498E+02   -0.48745E-03   -0.17906E-05  7664   0.115E-02    0.153E-02
DAV:  21    -0.644985388714E+02   -0.59082E-03   -0.23153E-05  7328   0.128E-02    0.136E-02
DAV:  22    -0.644988437237E+02   -0.30485E-03   -0.53206E-06  6840   0.728E-03    0.598E-03
DAV:  23    -0.644991205068E+02   -0.27678E-03   -0.62810E-06  6696   0.619E-03    0.597E-03
DAV:  24    -0.644992667571E+02   -0.14625E-03   -0.26630E-06  6632   0.526E-03    0.225E-03
DAV:  25    -0.644993281094E+02   -0.61352E-04   -0.86926E-07  6464   0.275E-03    0.170E-03
DAV:  26    -0.644993562191E+02   -0.28110E-04   -0.33484E-07  6296   0.126E-03    0.104E-03
DAV:  27    -0.644993685611E+02   -0.12342E-04   -0.15322E-07  6120   0.730E-04    0.538E-04
DAV:  28    -0.644993771037E+02   -0.85426E-05   -0.83106E-08  6192   0.770E-04    0.402E-04
DAV:  29    -0.644993812241E+02   -0.41204E-05   -0.24123E-08  6168   0.369E-04    0.327E-04
DAV:  30    -0.644993846055E+02   -0.33814E-05   -0.11838E-08  5608   0.213E-04    0.120E-04
DAV:  31    -0.644993863915E+02   -0.17860E-05   -0.23293E-09  5864   0.106E-04    0.107E-04
DAV:  32    -0.644993885863E+02   -0.21948E-05   -0.16832E-09  5912   0.818E-05    0.719E-05
DAV:  33    -0.644993896489E+02   -0.10625E-05   -0.31966E-10  6000   0.416E-05    0.375E-05
DAV:  34    -0.644993905295E+02   -0.88061E-06   -0.36322E-10  5848   0.468E-05
   1 F= -.64499391E+02 E0= -.64499391E+02  d E =0.000000E+00  mag=     0.0000
