NO_TITLE_GIVEN, Slab 001: (6 full + 26 empty)*(1x1 InPlaneMultipl)
1.000000
   5.09079504680000   0.00000000000000   0.00000000000000
   2.54539752340000   4.40875783598879   0.00000000000000
   0.00000000000000   0.00000000000000  25.23091915513826
Fe O
4 6 
Direct(10) [A4B6] 
   0.66666666666666   0.66666666666667   0.17246552821490  Fe    
   0.33333333333334   0.33333333333333   0.10337929571347  Fe    
   0.00000000000000   0.00000000000000   0.08051725357210  Fe    
   0.66666666666666   0.66666666666667   0.01143102107069  Fe    
   0.69447147770000   0.00000000000000   0.13792241196418  O     
   0.30552852230000   0.69447147770000   0.13792241196418  O     
   0.00000000000000   0.30552852230000   0.13792241196418  O     
   0.63886185563334   0.33333333333333   0.04597413732139  O     
   0.02780481103334   0.63886185563333   0.04597413732139  O     
   0.33333333333334   0.02780481103333   0.04597413732139  O     
